p tw 169 510
0 1
0 2
0 3
0 48
0 49
1 2
1 3
1 116
2 3
2 117
2 129
2 138
2 140
3 79
4 5
4 21
4 122
4 123
4 124
5 150
5 165
6 7
6 8
6 9
6 10
6 43
6 76
7 8
7 9
7 10
7 44
7 73
7 74
7 75
8 9
8 10
8 45
8 50
9 10
9 103
9 104
9 105
9 106
10 114
10 151
10 159
10 161
11 12
11 13
11 14
11 108
12 13
12 14
12 65
12 66
13 14
13 105
13 107
13 113
13 114
14 82
15 16
15 17
15 87
15 88
16 17
16 115
16 164
17 77
17 78
18 19
18 80
18 81
19 139
19 141
19 153
20 21
20 142
20 145
21 122
21 123
21 124
22 23
22 130
22 131
22 132
22 133
23 67
23 68
24 25
24 26
24 27
24 39
24 121
25 26
25 27
25 40
25 61
25 62
25 63
25 64
26 27
26 120
26 127
27 29
27 56
27 83
27 84
28 29
28 30
28 57
29 30
29 56
29 83
29 84
30 51
30 52
30 53
30 54
30 55
31 32
31 33
31 80
31 137
31 140
31 141
32 33
32 81
32 136
32 138
32 139
33 70
33 135
33 156
33 166
34 35
34 63
34 104
34 161
35 106
35 159
36 37
36 38
36 118
36 148
36 158
36 167
37 38
37 46
37 47
38 69
38 119
38 152
38 153
38 154
39 40
39 41
39 42
39 43
39 44
39 45
39 121
40 41
40 42
40 43
40 44
40 45
40 61
40 62
40 63
40 64
41 42
41 43
41 44
41 45
41 98
42 43
42 44
42 45
42 144
43 44
43 45
43 76
44 45
44 73
44 74
44 75
45 50
46 47
46 58
46 118
46 119
47 96
47 99
47 147
47 154
47 158
48 49
48 79
48 116
48 117
49 109
49 129
50 74
50 76
51 52
51 53
51 54
51 55
51 112
52 53
52 54
52 55
52 64
52 83
52 126
52 127
52 128
53 54
53 55
53 67
53 125
53 131
53 162
54 55
54 109
54 110
54 111
55 56
55 57
56 57
56 83
56 84
58 59
58 60
58 118
58 119
59 60
59 69
59 70
59 71
59 72
60 93
60 143
60 146
60 152
60 163
60 166
61 62
61 63
61 64
61 75
61 98
61 121
61 144
62 63
62 64
62 84
62 120
63 64
63 104
63 161
64 83
64 126
64 127
64 128
65 66
65 82
65 107
65 108
66 91
66 113
67 68
67 125
67 131
67 162
68 133
69 70
69 71
69 72
69 119
69 152
69 153
69 154
70 71
70 72
70 135
70 156
70 166
71 72
71 143
72 146
73 74
73 75
73 103
73 151
74 75
74 76
75 98
75 121
75 144
77 78
77 115
78 88
79 116
79 117
80 81
80 137
80 140
80 141
81 136
81 138
81 139
82 107
82 108
83 84
83 126
83 127
83 128
84 120
85 86
85 92
85 96
85 97
86 89
86 99
86 100
86 101
86 102
87 88
87 90
87 147
89 90
89 91
89 92
89 99
89 100
89 101
89 102
90 91
90 92
90 147
91 92
91 113
92 96
92 97
93 94
93 95
93 143
93 146
93 152
93 163
93 166
94 95
94 134
94 135
94 136
94 137
95 155
95 156
96 97
96 99
96 147
96 154
96 158
97 102
97 123
97 145
97 165
98 121
98 144
99 100
99 101
99 102
99 147
99 154
99 158
100 101
100 102
100 167
100 168
101 102
101 148
101 149
102 123
102 145
102 165
103 104
103 105
103 106
103 151
104 105
104 106
104 161
105 106
105 107
105 113
105 114
106 159
107 108
107 113
107 114
109 110
109 111
109 129
110 111
110 112
110 125
110 126
111 128
111 164
112 125
112 126
113 114
114 151
114 159
114 161
115 164
116 117
117 129
117 138
117 140
118 119
118 148
118 158
118 167
119 152
119 153
119 154
120 127
121 144
122 123
122 124
122 142
123 124
123 145
123 165
124 150
125 126
125 131
125 162
126 127
126 128
127 128
128 164
129 138
129 140
130 131
130 132
130 133
130 157
131 132
131 133
131 162
132 133
132 160
134 135
134 136
134 137
134 155
134 163
135 136
135 137
135 156
135 166
136 137
136 138
136 139
137 140
137 141
138 139
138 140
139 141
139 153
140 141
141 153
142 145
143 146
143 152
143 163
143 166
145 165
146 152
146 163
146 166
147 154
147 158
148 149
148 158
148 167
149 168
150 165
151 159
151 161
152 153
152 154
152 163
152 166
153 154
154 158
155 156
155 163
156 166
157 160
157 162
158 167
159 161
160 162
163 166
167 168
